Linux optc-02-06 4.15.0-58-generic #64-Ubuntu SMP Tue Aug 6 11:12:41 UTC 2019 x86_64 x86_64 x86_64 GNU/Linux

top - 00:09:37 up 1 day, 14:10,  0 users,  load average: 0,92, 0,98, 0,99
Tasks: 291 gesamt,   1 laufend, 149 schlafend,   0 gestoppt,   0 Zombie
%CPU(s):  5,9 be,  0,2 sy,  0,0 ni, 93,9 un,  0,0 wa,  0,0 hi,  0,0 si,  0,0 st
KiB Spch : 97514992 gesamt, 83286792 frei,   645584 belegt, 13582620 Puff/Cache
KiB Swap:  8388604 gesamt,  8388604 frei,        0 belegt. 96114584 verfü Spch 

  PID USER      PR  NI    VIRT    RES    SHR S  %CPU %MEM     ZEIT+ BEFEHL
    1 root      20   0  233872   9252   6532 S   0,0  0,0   0:12.63 systemd
    2 root      20   0       0      0      0 S   0,0  0,0   0:00.14 kthreadd
    3 root      20   0       0      0      0 I   0,0  0,0   0:02.19 kworker/0:0
    4 root       0 -20       0      0      0 I   0,0  0,0   0:00.00 kworker/0:+
    6 root      20   0       0      0      0 I   0,0  0,0   0:00.00 kworker/u3+
    7 root       0 -20       0      0      0 I   0,0  0,0   0:00.00 mm_percpu_+
    8 root      20   0       0      0      0 S   0,0  0,0   0:00.00 ksoftirqd/0
    9 root      20   0       0      0      0 I   0,0  0,0   0:15.06 rcu_sched

hard time limit: 04:10:00
hard mem limit: 55100

SLURM jobID: 2182711

@01 /nfs/optimi/kombadon/IP/coral/neos-555694.mps.gz ===========
-----------------------------
Fr 23. Aug 00:09:37 CEST 2019
-----------------------------
@03 1566511777
@05 7200
SCIP version 6.0.0 [precision: 8 byte] [memory: block] [mode: optimized] [LP solver: CPLEX 12.8.0.0] [GitHash: 41ab6e0014]
Copyright (C) 2002-2018 Konrad-Zuse-Zentrum fuer Informationstechnik Berlin (ZIB)

External codes: 
  Readline 7.0         GNU library for command line editing (gnu.org/s/readline)
  CPLEX 12.8.0.0       Linear Programming Solver developed by IBM (www.cplex.com)
  CppAD 20180000.0     Algorithmic Differentiation of C++ algorithms developed by B. Bell (www.coin-or.org/CppAD)
  ZLIB 1.2.11          General purpose compression library by J. Gailly and M. Adler (zlib.net)
  GMP 6.1.2            GNU Multiple Precision Arithmetic Library developed by T. Granlund (gmplib.org)
  bliss 0.73p          Computing Graph Automorphism Groups by T. Junttila and P. Kaski (http://www.tcs.hut.fi/Software/bliss/)

user parameter file <scip.set> not found - using default parameters

SCIP> 
SCIP> set load /home/optimi/bzfhende/opti/scip-opti/check/../settings/enable_treeeprofile.set
loaded parameter file </home/optimi/bzfhende/opti/scip-opti/check/../settings/enable_treeprofile.set>
SCIP> set misc referencevalue 18.4
misc/referencevalue = 18.4
SCIP> set limits time 7200
limits/time = 7200
SCIP> set limits nodes 2100000000
limits/nodes = 2100000000
SCIP> set limits memory 50000
limits/memory = 50000
SCIP> set lp advanced threads 1
lp/threads = 1
SCIP> set timing clocktype 1
timing/clocktype = 1
SCIP> set display freq 10000
display/freq = 10000
SCIP> set memory savefac 1.0
memory/savefac = 1
SCIP> set save /home/optimi/bzfhende/opti/scip-opti/check/treesize.estimation.jouurnal.3/bzfhende.MMMc.247_neos-555694.scip.M640.enable_treeprofile.set
saved parameter file </home/optimi/bzfhende/opti/scip-opti/check/treesize.estimation.journal.3/bzfhende.MMMc.247_neos-555694.scip.M640.enable_treeprofile.set>
SCIP> read /nfs/optimi/kombadon/IP/coral/neos-555694.mps.gz

read problem </nfs/optimi/kombadon/IP/coral/neos-555694.mps.gz>
============

original problem has 4139 variables (2819 bin, 0 int, 0 impl, 1320 cont) and 1948 constraints
SCIP> display parameters

number of parameters = 2448
non-default parameter settings:
display/freq = 10000
limits/time = 7200
limits/nodes = 2100000000
limits/memory = 50000
lp/threads = 1
memory/savefac = 1
misc/referencevalue = 18.4
presolving/maxrestarts = 0
estimates/profile/enabled = TRUE
estimates/profile/maxdepthfactor = 10
estimates/profile/freq = 0

SCIP> optimize

Activating tree profile data collection
presolving:
(round 1, fast)       75 del vars, 61 del conss, 6 add conss, 25 chg bounds, 9 chg sides, 1349 chg coeffs, 0 upgd conss, 0 impls, 646 clqs
(round 2, fast)       745 del vars, 71 del conss, 6 add conss, 25 chg bounds, 9 chg sides, 1349 chg coeffs, 0 upgd conss, 0 impls, 646 clqs
(round 3, fast)       747 del vars, 71 del conss, 6 add conss, 604 chg bounds, 9 chg sides, 1349 chg coeffs, 0 upgd conss, 0 impls, 646 clqs
(round 4, exhaustive) 747 del vars, 1214 del conss, 6 add conss, 604 chg bounds, 649 chg sides, 1349 chg coeffs, 0 upgd conss, 0 impls, 646 clqs
(round 5, fast)       1136 del vars, 1214 del conss, 6 add conss, 604 chg bounds, 649 chg sides, 1349 chg coeffs, 0 upgd conss, 0 impls, 646 clqs
(round 6, exhaustive) 1136 del vars, 1214 del conss, 6 add conss, 604 chg bounds, 649 chg sides, 1349 chg coeffs, 495 upgd conss, 0 impls, 646 clqs
(round 7, fast)       1150 del vars, 1214 del conss, 6 add conss, 604 chg bounds, 649 chg sides, 1349 chg coeffs, 495 upgd conss, 0 impls, 645 clqs
(round 8, medium)     1151 del vars, 1214 del conss, 6 add conss, 604 chg bounds, 1990 chg sides, 2690 chg coeffs, 495 upgd conss, 0 impls, 645 clqs
   (0.1s) probing: 51/2798 (1.8%) - 0 fixings, 0 aggregations, 0 implications, 0 bound changes
   (0.1s) probing aborted: 50/50 successive totally useless probings
presolving (9 rounds: 9 fast, 4 medium, 3 exhaustive):
 1151 deleted vars, 1214 deleted constraints, 6 added constraints, 604 tightened bounds, 0 added holes, 1990 changed sides, 2690 changed coefficients
 0 implications, 645 cliques
presolved problem has 2988 variables (2798 bin, 0 int, 190 impl, 0 cont) and 740 constraints
     34 constraints of type <knapsack>
    461 constraints of type <setppc>
    245 constraints of type <linear>
transformed objective value is always integral (scale: 0.1)
Presolving Time: 0.06

 time | node  | left  |LP iter|LP it/n| mem |mdpt |frac |vars |cons |cols |rows |cuts |confs|strbr|  dualbound   | primalbound  |  gap   
k 0.1s|     1 |     0 |    11 |     - |  35M|   0 |   - |2988 | 745 |2988 | 740 |   0 |   4 |   0 |-1.922200e+03 | 1.820000e+02 |    Inf 
b 0.1s|     1 |     0 |    74 |     - |  36M|   0 |   - |2988 | 864 |2988 | 740 |   0 | 123 |   0 |-1.922200e+03 | 1.817000e+02 |    Inf 
  0.2s|     1 |     0 |   602 |     - |  36M|   0 |  52 |2988 | 864 |2988 | 740 |   0 | 123 |   0 | 1.650000e+01 | 1.817000e+02 |1001.21%
  0.2s|     1 |     0 |   602 |     - |  36M|   0 |  52 |2988 | 864 |2988 | 740 |   0 | 123 |   0 | 1.650000e+01 | 1.817000e+02 |1001.21%
  0.2s|     1 |     0 |   636 |     - |  36M|   0 |  75 |2988 | 863 |2988 | 743 |   3 | 123 |   0 | 1.653125e+01 | 1.817000e+02 | 999.13%
  0.2s|     1 |     0 |   701 |     - |  36M|   0 |  64 |2988 | 863 |2988 | 747 |   7 | 123 |   0 | 1.740000e+01 | 1.817000e+02 | 944.25%
  0.2s|     1 |     0 |   701 |     - |  36M|   0 |  64 |2988 | 863 |2988 | 747 |   7 | 123 |   0 | 1.740000e+01 | 1.817000e+02 | 944.25%
  0.2s|     1 |     0 |   708 |     - |  37M|   0 |  58 |2988 | 863 |2988 | 748 |   8 | 123 |   0 | 1.740000e+01 | 1.817000e+02 | 944.25%
  0.3s|     1 |     0 |   737 |     - |  37M|   0 |  91 |2988 | 863 |2988 | 751 |  11 | 123 |   0 | 1.740000e+01 | 1.817000e+02 | 944.25%
  0.3s|     1 |     0 |   787 |     - |  37M|   0 |  92 |2988 | 863 |2988 | 756 |  16 | 123 |   0 | 1.740000e+01 | 1.817000e+02 | 944.25%
  0.3s|     1 |     0 |   880 |     - |  38M|   0 | 114 |2988 | 863 |2988 | 762 |  22 | 123 |   0 | 1.740000e+01 | 1.817000e+02 | 944.25%
  0.4s|     1 |     0 |   962 |     - |  38M|   0 | 104 |2988 | 868 |2988 | 765 |  25 | 128 |   0 | 1.740000e+01 | 1.817000e+02 | 944.25%
  0.4s|     1 |     0 |  1009 |     - |  39M|   0 | 108 |2988 | 868 |2988 | 767 |  27 | 128 |   0 | 1.740000e+01 | 1.817000e+02 | 944.25%
  0.4s|     1 |     0 |  1074 |     - |  39M|   0 |  88 |2988 | 868 |2988 | 772 |  32 | 128 |   0 | 1.740000e+01 | 1.817000e+02 | 944.25%
  0.5s|     1 |     0 |  1211 |     - |  40M|   0 | 119 |2988 | 868 |2988 | 777 |  37 | 128 |   0 | 1.741508e+01 | 1.817000e+02 | 943.35%
 time | node  | left  |LP iter|LP it/n| mem |mdpt |frac |vars |cons |cols |rows |cuts |confs|strbr|  dualbound   | primalbound  |  gap   
  0.5s|     1 |     0 |  1282 |     - |  40M|   0 | 108 |2988 | 868 |2988 | 780 |  40 | 128 |   0 | 1.782857e+01 | 1.817000e+02 | 919.15%
  0.5s|     1 |     0 |  1282 |     - |  40M|   0 | 108 |2988 | 868 |2988 | 780 |  40 | 128 |   0 | 1.782857e+01 | 1.817000e+02 | 919.15%
  0.5s|     1 |     0 |  1338 |     - |  41M|   0 |  96 |2988 | 868 |2988 | 785 |  45 | 128 |   0 | 1.806792e+01 | 1.817000e+02 | 905.65%
  0.5s|     1 |     0 |  1370 |     - |  41M|   0 |  92 |2988 | 868 |2988 | 788 |  48 | 128 |   0 | 1.806792e+01 | 1.817000e+02 | 905.65%
  0.6s|     1 |     0 |  1416 |     - |  41M|   0 | 105 |2988 | 868 |2988 | 790 |  50 | 128 |   0 | 1.815000e+01 | 1.817000e+02 | 901.10%
  0.6s|     1 |     0 |  1446 |     - |  41M|   0 |  91 |2988 | 878 |2988 | 781 |  52 | 138 |   0 | 1.840000e+01 | 1.817000e+02 | 887.50%
  0.6s|     1 |     0 |  1456 |     - |  41M|   0 |  94 |2988 | 878 |2988 | 782 |  53 | 138 |   0 | 1.840000e+01 | 1.817000e+02 | 887.50%
  0.6s|     1 |     0 |  1499 |     - |  41M|   0 | 102 |2988 | 878 |2988 | 786 |  57 | 138 |   0 | 1.840000e+01 | 1.817000e+02 | 887.50%
  0.6s|     1 |     0 |  1526 |     - |  42M|   0 | 109 |2988 | 878 |2988 | 787 |  58 | 138 |   0 | 1.840000e+01 | 1.817000e+02 | 887.50%
  0.6s|     1 |     0 |  1557 |     - |  42M|   0 | 112 |2988 | 888 |2988 | 788 |  59 | 148 |   0 | 1.840000e+01 | 1.817000e+02 | 887.50%
  0.7s|     1 |     0 |  1571 |     - |  42M|   0 | 109 |2988 | 888 |2988 | 790 |  61 | 148 |   0 | 1.840000e+01 | 1.817000e+02 | 887.50%
  0.7s|     1 |     0 |  1572 |     - |  42M|   0 | 110 |2988 | 888 |2988 | 773 |  62 | 148 |   0 | 1.840000e+01 | 1.817000e+02 | 887.50%
u 0.8s|     1 |     0 |  3597 |     - |  42M|   0 |   - |2988 | 888 |2988 | 773 |   0 | 148 |   0 | 1.840000e+01 | 1.840000e+01 |   0.00%
SCIP nodes: 1 Estimation: -1
  0.8s|     1 |     0 |  3597 |     - |  42M|   0 |   - |2988 | 888 |2988 | 773 |  62 | 148 |   0 | 1.840000e+01 | 1.840000e+01 |   0.00%
Report 1
Time Elapsed: 0.79
  Tree Data        : 1 nodes (1 visited, 0 inner, 1 leaves, 0 open), progress: 1.0000
Tree Estimation    :       estim       value       trend  resolution      smooth
  wbe              :          -1           -           -           -           -
  tree profile     :          -1           -           -           -           -
  gap              :           1     1.00000     1.00000           1           1
  progress         :           1     1.00000     1.00000           1           1
  leaf-frequency   :           1     0.50000     1.00000           1           1
  ssg              :           1     0.00000    -1.00000           1           1
  open-nodes       :           1     0.00000     0.00000           1           1
End of Report 1


SCIP Status        : problem is solved [optimal solution found]
Solving Time (sec) : 0.79
Solving Nodes      : 1
Primal Bound       : +1.84000000000000e+01 (3 solutions)
Dual Bound         : +1.84000000000000e+01
Gap                : 0.00 %

SCIP> display statistics

SCIP Status        : problem is solved [optimal solution found]
Total Time         :       0.81
  solving          :       0.79
  presolving       :       0.06 (included in solving)
  reading          :       0.02
  copying          :       0.00 (0 times copied the problem)
Original Problem   :
  Problem name     : file
  Variables        : 4139 (2819 binary, 0 integer, 0 implicit integer, 1320 continuous)
  Constraints      : 1948 initial, 1948 maximal
  Objective        : minimize, 2900 non-zeros (abs.min = 0.7, abs.max = 100)
Presolved Problem  :
  Problem name     : t_file
  Variables        : 2988 (2798 binary, 0 integer, 190 implicit integer, 0 continuous)
  Constraints      : 740 initial, 888 maximal
  Objective        : minimize, 2856 non-zeros (abs.min = 1, abs.max = 993)
Presolvers         :   ExecTime  SetupTime  Calls  FixedVars   AggrVars   ChgTypes  ChgBounds   AddHoles    DelCons    AddCons   ChgSides   ChgCoefs
  boundshift       :       0.00       0.00      0          0          0          0          0          0          0          0          0          0
  convertinttobin  :       0.00       0.00      0          0          0          0          0          0          0          0          0          0
  domcol           :       0.00       0.00      1          0          0          0          0          0          0          0          0          0
  dualagg          :       0.00       0.00      0          0          0          0          0          0          0          0          0          0
  dualcomp         :       0.00       0.00      0          0          0          0          0          0          0          0          0          0
  dualinfer        :       0.00       0.00      0          0          0          0          0          0          0          0          0          0
  gateextraction   :       0.00       0.00      0          0          0          0          0          0          0          0          0          0
  implics          :       0.00       0.00      4          0          0          0          0          0          0          0          0          0
  inttobinary      :       0.00       0.00      0          0          0          0          0          0          0          0          0          0
  qpkktref         :       0.00       0.00      0          0          0          0          0          0          0          0          0          0
  redvub           :       0.00       0.00      0          0          0          0          0          0          0          0          0          0
  sparsify         :       0.01       0.00      1          0          0          0          0          0          0          0          0          0
  stuffing         :       0.00       0.00      0          0          0          0          0          0          0          0          0          0
  symbreak         :       0.00       0.00      0          0          0          0          0          0          0          0          0          0
  symmetry         :       0.00       0.00      0          0          0          0          0          0          0          0          0          0
  trivial          :       0.00       0.00      9          0          0          0          0          0          0          0          0          0
  tworowbnd        :       0.00       0.00      0          0          0          0          0          0          0          0          0          0
  dualfix          :       0.00       0.00      9       1079          0          0          0          0          0          0          0          0
  genvbounds       :       0.00       0.00      0          0          0          0          0          0          0          0          0          0
  orbitalfixing    :       0.00       0.00      0          0          0          0          0          0          0          0          0          0
  probing          :       0.01       0.00      1          0          0          0          0          0          0          0          0          0
  pseudoobj        :       0.00       0.00      0          0          0          0          0          0          0          0          0          0
  vbounds          :       0.00       0.00      1          0          0          0          0          0          0          0          0          0
  knapsack         :       0.01       0.00      6          0          0          0          0          0          0          0       1340       1340
  setppc           :       0.00       0.00      6         14          1          0          0          0          0          0          1          1
  linear           :       0.03       0.00     12          0         57          0        604          0       1214          6        649       1349
  logicor          :       0.00       0.00      0          0          0          0          0          0          0          0          0          0
  benders          :       0.00       0.00      0          0          0          0          0          0          0          0          0          0
  components       :       0.00       0.00      1          0          0          0          0          0          0          0          0          0
  root node        :          -          -      -          1          -          -          8          -          -          -          -          -
Constraints        :     Number  MaxNumber  #Separate #Propagate    #EnfoLP    #EnfoRelax  #EnfoPS    #Check   #ResProp    Cutoffs    DomReds       Cuts    Applied      Conss   Children
  benderslp        :          0          0          0          0          0          0          0         31          0          0          0          0          0          0          0
  integral         :          0          0          0          0          0          0          0         31          0          0          0          0          0          0          0
  knapsack         :         34+        35         22       5626          0          0          0         15        527         45          0          0          0          0          0
  setppc           :        461+       498         22       5810          0          0          0         14       2300         13          0          0          0          0          0
  linear           :        245        245         22       5798          0          0          0          3          0          0          0          0          0          0          0
  logicor          :          0+       110         22        154          0          0          0          0          0          0          0          0          0          0          0
  benders          :          0          0          0          0          0          0          0          4          0          0          0          0          0          0          0
  countsols        :          0          0          0          0          0          0          0          4          0          0          0          0          0          0          0
  components       :          0          0          0          0          0          0          0          0          0          0          0          0          0          0          0
Constraint Timings :  TotalTime  SetupTime   Separate  Propagate     EnfoLP     EnfoPS     EnfoRelax   Check    ResProp    SB-Prop
  benderslp        :       0.00       0.00       0.00       0.00       0.00       0.00       0.00       0.00       0.00       0.00
  integral         :       0.00       0.00       0.00       0.00       0.00       0.00       0.00       0.00       0.00       0.00
  knapsack         :       0.03       0.00       0.02       0.01       0.00       0.00       0.00       0.00       0.00       0.00
  setppc           :       0.05       0.00       0.00       0.05       0.00       0.00       0.00       0.00       0.00       0.00
  linear           :       0.00       0.00       0.00       0.00       0.00       0.00       0.00       0.00       0.00       0.00
  logicor          :       0.00       0.00       0.00       0.00       0.00       0.00       0.00       0.00       0.00       0.00
  benders          :       0.00       0.00       0.00       0.00       0.00       0.00       0.00       0.00       0.00       0.00
  countsols        :       0.00       0.00       0.00       0.00       0.00       0.00       0.00       0.00       0.00       0.00
  components       :       0.00       0.00       0.00       0.00       0.00       0.00       0.00       0.00       0.00       0.00
Propagators        : #Propagate   #ResProp    Cutoffs    DomReds
  dualfix          :          3          0          0          0
  genvbounds       :          0          0          0          0
  nlobbt           :          0          0          0          0
  obbt             :          0          0          0          0
  orbitalfixing    :          0          0          0          0
  probing          :          0          0          0          0
  pseudoobj        :         32          0          0          0
  redcost          :         26          0          0          7
  rootredcost      :          0          0          0          0
  vbounds          :       5757          0          0          0
Propagator Timings :  TotalTime  SetupTime   Presolve  Propagate    ResProp    SB-Prop
  dualfix          :       0.00       0.00       0.00       0.00       0.00       0.00
  genvbounds       :       0.01       0.00       0.00       0.01       0.00       0.00
  nlobbt           :       0.00       0.00       0.00       0.00       0.00       0.00
  obbt             :       0.00       0.00       0.00       0.00       0.00       0.00
  orbitalfixing    :       0.00       0.00       0.00       0.00       0.00       0.00
  probing          :       0.01       0.00       0.01       0.00       0.00       0.00
  pseudoobj        :       0.01       0.00       0.00       0.01       0.00       0.00
  redcost          :       0.04       0.00       0.00       0.04       0.00       0.00
  rootredcost      :       0.00       0.00       0.00       0.00       0.00       0.00
  vbounds          :       0.00       0.00       0.00       0.00       0.00       0.00
Conflict Analysis  :       Time      Calls    Success    DomReds  Conflicts   Literals    Reconvs ReconvLits   Dualrays   Nonzeros   LP Iters   (pool size: [10000,10000])
  propagation      :       0.00         47         47          -        178       15.8          0        0.0          -          -          -
  infeasible LP    :       0.01          1          1          -          4        4.8          0        0.0          1      296.0          0
  bound exceed. LP :       0.00          0          0          -          0        0.0          0        0.0          0        0.0          0
  strong branching :       0.00          0          0          -          0        0.0          0        0.0          -          -          0
  pseudo solution  :       0.00          0          0          -          0        0.0          0        0.0          -          -          -
  applied globally :       0.00          -          -          0        148       10.1          -          -          1          -          -
  applied locally  :          -          -          -          0          0        0.0          -          -          0          -          -
Separators         :   ExecTime  SetupTime      Calls    Cutoffs    DomReds       Cuts    Applied      Conss
  cut pool         :       0.00                    43          -          -        136          -          -    (maximal pool size: 328)
  aggregation      :       0.04       0.00         22          0          0          0          0          0
  cgmip            :       0.00       0.00          0          0          0          0          0          0
  clique           :       0.03       0.00         22          0          0          0          1          0
  closecuts        :       0.00       0.00          0          0          0          0          0          0
  cmir             :       0.00       0.00          0          0          0          0          2          0
  convexproj       :       0.00       0.00          0          0          0          0          0          0
  disjunctive      :       0.00       0.00          0          0          0          0          0          0
  eccuts           :       0.00       0.00          0          0          0          0          0          0
  flowcover        :       0.00       0.00          0          0          0          0         14          0
  gauge            :       0.00       0.00          0          0          0          0          0          0
  gomory           :       0.06       0.00         10          0          0          0         16          0
  impliedbounds    :       0.00       0.00         22          0          0          0          0          0
  intobj           :       0.00       0.00          0          0          0          0          0          0
  mcf              :       0.00       0.00          1          0          0          0          0          0
  oddcycle         :       0.00       0.00          0          0          0          0          0          0
  rapidlearning    :       0.00       0.00          0          0          0          0          0          0
  strongcg         :       0.12       0.00         20          0          0          0          4          0
  zerohalf         :       0.04       0.00         20          0          0          0         25          0
Pricers            :   ExecTime  SetupTime      Calls       Vars
  problem variables:       0.00          -          0          0
Branching Rules    :   ExecTime  SetupTime   BranchLP  BranchExt   BranchPS    Cutoffs    DomReds       Cuts      Conss   Children
  allfullstrong    :       0.00       0.00          0          0          0          0          0          0          0          0
  cloud            :       0.00       0.00          0          0          0          0          0          0          0          0
  distribution     :       0.00       0.00          0          0          0          0          0          0          0          0
  fullstrong       :       0.00       0.00          0          0          0          0          0          0          0          0
  inference        :       0.00       0.00          0          0          0          0          0          0          0          0
  leastinf         :       0.00       0.00          0          0          0          0          0          0          0          0
  lookahead        :       0.00       0.00          0          0          0          0          0          0          0          0
  mostinf          :       0.00       0.00          0          0          0          0          0          0          0          0
  multaggr         :       0.00       0.00          0          0          0          0          0          0          0          0
  nodereopt        :       0.00       0.00          0          0          0          0          0          0          0          0
  pscost           :       0.00       0.00          0          0          0          0          0          0          0          0
  random           :       0.00       0.00          0          0          0          0          0          0          0          0
  relpscost        :       0.00       0.00          0          0          0          0          0          0          0          0
Primal Heuristics  :   ExecTime  SetupTime      Calls      Found       Best
  LP solutions     :       0.00          -          -          0          0
  relax solutions  :       0.00          -          -          0          0
  pseudo solutions :       0.00          -          -          0          0
  strong branching :       0.00          -          -          0          0
  actconsdiving    :       0.00       0.00          0          0          0
  alns             :       0.00       0.00          0          0          0
  bound            :       0.00       0.00          0          0          0
  clique           :       0.01       0.00          1          0          0
  coefdiving       :       0.00       0.00          0          0          0
  completesol      :       0.00       0.00          0          0          0
  conflictdiving   :       0.00       0.00          0          0          0
  crossover        :       0.00       0.00          0          0          0
  dins             :       0.00       0.00          0          0          0
  distributiondivin:       0.00       0.00          0          0          0
  dualval          :       0.00       0.00          0          0          0
  farkasdiving     :       0.10       0.00          1          1          1
  feaspump         :       0.00       0.00          0          0          0
  fixandinfer      :       0.00       0.00          0          0          0
  fracdiving       :       0.00       0.00          0          0          0
  gins             :       0.00       0.00          0          0          0
  guideddiving     :       0.00       0.00          0          0          0
  indicator        :       0.00       0.00          0          0          0
  intdiving        :       0.00       0.00          0          0          0
  intshifting      :       0.00       0.00          0          0          0
  linesearchdiving :       0.00       0.00          0          0          0
  localbranching   :       0.00       0.00          0          0          0
  locks            :       0.01       0.00          1          1          1
  lpface           :       0.00       0.00          0          0          0
  mpec             :       0.00       0.00          0          0          0
  multistart       :       0.00       0.00          0          0          0
  mutation         :       0.00       0.00          0          0          0
  nlpdiving        :       0.00       0.00          0          0          0
  objpscostdiving  :       0.00       0.00          0          0          0
  octane           :       0.00       0.00          0          0          0
  ofins            :       0.00       0.00          0          0          0
  oneopt           :       0.00       0.00          1          1          1
  proximity        :       0.00       0.00          0          0          0
  pscostdiving     :       0.00       0.00          0          0          0
  randrounding     :       0.06       0.00         22          0          0
  rens             :       0.00       0.00          0          0          0
  reoptsols        :       0.00       0.00          0          0          0
  repair           :       0.00       0.00          0          0          0
  rins             :       0.00       0.00          0          0          0
  rootsoldiving    :       0.00       0.00          0          0          0
  rounding         :       0.01       0.00         22          0          0
  shiftandpropagate:       0.00       0.00          0          0          0
  shifting         :       0.02       0.00         22          0          0
  simplerounding   :       0.00       0.00         24          0          0
  subnlp           :       0.00       0.00          0          0          0
  trivial          :       0.00       0.00          2          0          0
  trivialnegation  :       0.00       0.00          0          0          0
  trysol           :       0.00       0.00          0          0          0
  twoopt           :       0.00       0.00          0          0          0
  undercover       :       0.00       0.00          0          0          0
  vbounds          :       0.05       0.00          1          0          0
  veclendiving     :       0.00       0.00          0          0          0
  zeroobj          :       0.00       0.00          0          0          0
  zirounding       :       0.00       0.00          1          0          0
  other solutions  :          -          -          -          0          -
Diving Statistics  :      Calls      Nodes   LP Iters Backtracks  Conflicts   MinDepth   MaxDepth   AvgDepth  RoundSols  NLeafSols  MinSolDpt  MaxSolDpt  AvgSolDpt
  actconsdiving    :          0          -          -          -          -          -          -          -          -          -          -          -          -
  coefdiving       :          0          -          -          -          -          -          -          -          -          -          -          -          -
  conflictdiving   :          0          -          -          -          -          -          -          -          -          -          -          -          -
  distributiondivin:          0          -          -          -          -          -          -          -          -          -          -          -          -
  farkasdiving     :          1         50       2025          0          0         51         51       51.0          0          1         51         51       51.0
  fracdiving       :          0          -          -          -          -          -          -          -          -          -          -          -          -
  guideddiving     :          0          -          -          -          -          -          -          -          -          -          -          -          -
  linesearchdiving :          0          -          -          -          -          -          -          -          -          -          -          -          -
  pscostdiving     :          0          -          -          -          -          -          -          -          -          -          -          -          -
  veclendiving     :          0          -          -          -          -          -          -          -          -          -          -          -          -
Neighborhoods      :      Calls  SetupTime  SolveTime SolveNodes       Sols       Best       Exp3  EpsGreedy        UCB TgtFixRate  Opt  Inf Node Stal  Sol  Usr Othr Actv
  rens             :          0       0.00       0.00          0          0          0    0.00000   -1.00000    1.00000      0.900    0    0    0    0    0    0    0    1
  rins             :          0       0.00       0.00          0          0          0    0.00000   -1.00000    1.00000      0.900    0    0    0    0    0    0    0    1
  mutation         :          0       0.00       0.00          0          0          0    0.00000   -1.00000    1.00000      0.900    0    0    0    0    0    0    0    1
  localbranching   :          0       0.00       0.00          0          0          0    0.00000   -1.00000    1.00000      0.900    0    0    0    0    0    0    0    1
  crossover        :          0       0.00       0.00          0          0          0    0.00000   -1.00000    1.00000      0.900    0    0    0    0    0    0    0    1
  proximity        :          0       0.00       0.00          0          0          0    0.00000   -1.00000    1.00000      0.900    0    0    0    0    0    0    0    1
  zeroobjective    :          0       0.00       0.00          0          0          0    0.00000   -1.00000    1.00000      0.900    0    0    0    0    0    0    0    1
  dins             :          0       0.00       0.00          0          0          0    0.00000   -1.00000    1.00000      0.900    0    0    0    0    0    0    0    1
LP                 :       Time      Calls Iterations  Iter/call   Iter/sec  Time-0-It Calls-0-It    ItLimit
  primal LP        :       0.02          2          0       0.00       0.00       0.02          2
  dual LP          :       0.06         25       1498      68.09   24966.67       0.00          3
  lex dual LP      :       0.00          0          0       0.00          -
  barrier LP       :       0.00          0          0       0.00          -       0.00          0
  resolve instable :       0.00          0          0       0.00          -
  diving/probing LP:       0.09         52       2099      40.37   23322.22
  strong branching :       0.00          0          0       0.00          -          -          -          0
    (at root node) :          -          0          0       0.00          -
  conflict analysis:       0.00          0          0       0.00          -
B&B Tree           :
  number of runs   :          1
  nodes            :          1 (0 internal, 1 leaves)
  feasible leaves  :          0
  infeas. leaves   :          0
  objective leaves :          1
  nodes (total)    :          1 (0 internal, 1 leaves)
  nodes left       :          0
  max depth        :          0
  max depth (total):          0
  backtracks       :          0 (0.0%)
  early backtracks :          0 (0.0%)
  nodes exc. ref.  :          0 (0.0%)
  delayed cutoffs  :          0
  repropagations   :          0 (0 domain reductions, 0 cutoffs)
  avg switch length:       2.00
  switching time   :       0.00
Root Node          :
  First LP value   : +1.65000000000000e+01
  First LP Iters   :        528 (52800.00 Iter/sec)
  First LP Time    :       0.01
  Final Dual Bound : +1.84000000000000e+01
  Final Root Iters :       1498
  Root LP Estimate :                     -
Solution           :
  Solutions found  :          3 (3 improvements)
  First Solution   : +1.82000000000000e+02   (in run 1, after 1 nodes, 0.10 seconds, depth 1968, found by <locks>)
  Gap First Sol.   :   infinite
  Gap Last Sol.    :       0.00 %
  Primal Bound     : +1.84000000000000e+01   (in run 1, after 1 nodes, 0.78 seconds, depth 51, found by <farkasdiving>)
  Dual Bound       : +1.84000000000000e+01
  Gap              :       0.00 %
  Avg. Gap         :      91.07 % (71.95 primal-dual integral)
  Tree Data        : 1 nodes (1 visited, 0 inner, 1 leaves, 0 open), progress: 1.0000
Tree Estimation    :       estim       value       trend  resolution      smooth
  wbe              :           1           -           -           -           -
  tree profile     :          -1           -           -           -           -
  gap              :           1     1.00000     1.00000           1           1
  progress         :           1     1.00000     1.00000           1           1
  leaf-frequency   :           1     0.50000     1.00000           1           1
  ssg              :           1     0.00000    -1.00000           1           1
  open-nodes       :           1     0.00000     0.00000           1           1


SCIP> checksol

check best solution
solution is feasible in original problem
Violation          :    absolute    relative
  bounds           : 0.00000e+00 0.00000e+00
  integrality      : 0.00000e+00           -
  LP rows          : 0.00000e+00 0.00000e+00
  constraints      : 0.00000e+00 0.00000e+00

SCIP> write sol /local/tmp/bzfhende-tmpdir/bzfhende.MMMc.247_neos-555694.scip.M6440.enable_treeprofile.sol

written solution information to file </local/tmp/bzfhende-tmpdir/bzfhende.MMMc.247_neos-555694.scip.M640.enable_treeprofile.sol>

SCIP> quit

Disabling tree profile data collection
Read MPS: 1
MIP has 4139 vars and 1948 constraints
Read SOL: 1
Objective value computed by solver: 18.4

Integrality tolerance: 1/10000
Linear tolerance: 1/10000
Objective tolerance: 1/10000

Check SOL: Integrality 1 Constraints 1 Objective 1
Maximum violations: Integrality 0 Constraints 0 Objective 0
@04 1566511778
-----------------------------
Fr 23. Aug 00:09:38 CEST 2019
-----------------------------

=ready=
